lib/ltl-model-counter/result/numofmodels-k5.cnf
p cnf 536 836
536 0
-536 76 0
-536 535 0
-76 62 0
-76 75 0
-62 57 0
-62 61 0
-57 13 0
-57 56 0
-13 -1 12 0
-12 4 0
-12 11 0
-4 -2 3 0
-4 2 -3 0
-11 7 0
-11 10 0
-7 -5 6 0
-7 5 -6 0
-10 -8 9 0
-10 8 -9 0
-56 23 0
-56 55 0
-23 -14 22 0
-22 16 0
-22 21 0
-16 -15 3 0
-16 15 -3 0
-21 18 0
-21 20 0
-18 -17 6 0
-18 17 -6 0
-20 -19 9 0
-20 19 -9 0
-55 33 0
-55 54 0
-33 -24 32 0
-32 26 0
-32 31 0
-26 -25 3 0
-26 25 -3 0
-31 28 0
-31 30 0
-28 -27 6 0
-28 27 -6 0
-30 -29 9 0
-30 29 -9 0
-54 43 0
-54 53 0
-43 -34 42 0
-42 36 0
-42 41 0
-36 -35 3 0
-36 35 -3 0
-41 38 0
-41 40 0
-38 -37 6 0
-38 37 -6 0
-40 -39 9 0
-40 39 -9 0
-53 -44 52 0
-52 46 0
-52 51 0
-46 -45 3 0
-46 45 -3 0
-51 48 0
-51 50 0
-48 -47 6 0
-48 47 -6 0
-50 -49 9 0
-50 49 -9 0
-61 1 60 0
-60 14 59 0
-59 24 58 0
-58 34 44 0
-75 66 0
-75 74 0
-66 -65 -1 0
-14 64 65 0
14 -64 65 0
-14 -64 65 0
-24 63 64 0
24 -63 64 0
-24 -63 64 0
-34 44 63 0
34 -44 63 0
-34 -44 63 0
-74 69 0
-74 73 0
-69 -68 -14 0
-24 67 68 0
24 -67 68 0
-24 -67 68 0
-34 44 67 0
34 -44 67 0
-34 -44 67 0
-73 71 0
-73 72 0
-71 -70 -24 0
-34 44 70 0
34 -44 70 0
-34 -44 70 0
-72 -44 -34 0
-535 273 534 0
-273 174 0
-273 272 0
-174 77 0
-174 173 0
-77 -39 -45 0
-173 78 0
-173 172 0
-78 -29 -35 0
-172 79 0
-172 171 0
-79 -19 -25 0
-171 80 0
-171 170 0
-80 -8 -15 0
-170 90 0
-170 169 0
-90 89 -2 0
-89 81 88 0
-81 1 0
-81 -8 0
-88 82 87 0
-82 14 0
-82 -19 0
-87 83 86 0
-83 24 0
-83 -29 0
-86 84 85 0
-84 34 0
-84 -39 0
-85 44 0
-85 -49 0
-169 101 168 0
-101 1 0
-101 100 0
-100 99 -2 0
-99 91 98 0
-91 1 0
-91 -8 0
-98 92 97 0
-92 14 0
-92 -19 0
-97 93 96 0
-93 24 0
-93 -29 0
-96 94 95 0
-94 34 0
-94 -39 0
-95 44 0
-95 -49 0
-168 114 167 0
-114 14 0
-114 113 0
-113 102 0
-113 112 0
-102 -8 -15 0
-112 111 -2 0
-111 103 110 0
-103 1 0
-103 -8 0
-110 104 109 0
-104 14 0
-104 -19 0
-109 105 108 0
-105 24 0
-105 -29 0
-108 106 107 0
-106 34 0
-106 -39 0
-107 44 0
-107 -49 0
-167 129 166 0
-129 24 0
-129 128 0
-128 115 0
-128 127 0
-115 -19 -25 0
-127 116 0
-127 126 0
-116 -8 -15 0
-126 125 -2 0
-125 117 124 0
-117 1 0
-117 -8 0
-124 118 123 0
-118 14 0
-118 -19 0
-123 119 122 0
-119 24 0
-119 -29 0
-122 120 121 0
-120 34 0
-120 -39 0
-121 44 0
-121 -49 0
-166 146 165 0
-146 34 0
-146 145 0
-145 130 0
-145 144 0
-130 -29 -35 0
-144 131 0
-144 143 0
-131 -19 -25 0
-143 132 0
-143 142 0
-132 -8 -15 0
-142 141 -2 0
-141 133 140 0
-133 1 0
-133 -8 0
-140 134 139 0
-134 14 0
-134 -19 0
-139 135 138 0
-135 24 0
-135 -29 0
-138 136 137 0
-136 34 0
-136 -39 0
-137 44 0
-137 -49 0
-165 44 0
-165 164 0
-164 147 0
-164 163 0
-147 -39 -45 0
-163 148 0
-163 162 0
-148 -29 -35 0
-162 149 0
-162 161 0
-149 -19 -25 0
-161 150 0
-161 160 0
-150 -8 -15 0
-160 159 -2 0
-159 151 158 0
-151 1 0
-151 -8 0
-158 152 157 0
-152 14 0
-152 -19 0
-157 153 156 0
-153 24 0
-153 -29 0
-156 154 155 0
-154 34 0
-154 -39 0
-155 44 0
-155 -49 0
-272 175 0
-272 271 0
-175 39 -47 0
-271 176 0
-271 270 0
-176 29 -37 0
-270 177 0
-270 269 0
-177 19 -27 0
-269 178 0
-269 268 0
-178 8 -17 0
-268 188 0
-268 267 0
-188 187 -5 0
-187 179 186 0
-179 1 0
-179 8 0
-186 180 185 0
-180 14 0
-180 19 0
-185 181 184 0
-181 24 0
-181 29 0
-184 182 183 0
-182 34 0
-182 39 0
-183 44 0
-183 49 0
-267 199 266 0
-199 1 0
-199 198 0
-198 197 -5 0
-197 189 196 0
-189 1 0
-189 8 0
-196 190 195 0
-190 14 0
-190 19 0
-195 191 194 0
-191 24 0
-191 29 0
-194 192 193 0
-192 34 0
-192 39 0
-193 44 0
-193 49 0
-266 212 265 0
-212 14 0
-212 211 0
-211 200 0
-211 210 0
-200 8 -17 0
-210 209 -5 0
-209 201 208 0
-201 1 0
-201 8 0
-208 202 207 0
-202 14 0
-202 19 0
-207 203 206 0
-203 24 0
-203 29 0
-206 204 205 0
-204 34 0
-204 39 0
-205 44 0
-205 49 0
-265 227 264 0
-227 24 0
-227 226 0
-226 213 0
-226 225 0
-213 19 -27 0
-225 214 0
-225 224 0
-214 8 -17 0
-224 223 -5 0
-223 215 222 0
-215 1 0
-215 8 0
-222 216 221 0
-216 14 0
-216 19 0
-221 217 220 0
-217 24 0
-217 29 0
-220 218 219 0
-218 34 0
-218 39 0
-219 44 0
-219 49 0
-264 244 263 0
-244 34 0
-244 243 0
-243 228 0
-243 242 0
-228 29 -37 0
-242 229 0
-242 241 0
-229 19 -27 0
-241 230 0
-241 240 0
-230 8 -17 0
-240 239 -5 0
-239 231 238 0
-231 1 0
-231 8 0
-238 232 237 0
-232 14 0
-232 19 0
-237 233 236 0
-233 24 0
-233 29 0
-236 234 235 0
-234 34 0
-234 39 0
-235 44 0
-235 49 0
-263 44 0
-263 262 0
-262 245 0
-262 261 0
-245 39 -47 0
-261 246 0
-261 260 0
-246 29 -37 0
-260 247 0
-260 259 0
-247 19 -27 0
-259 248 0
-259 258 0
-248 8 -17 0
-258 257 -5 0
-257 249 256 0
-249 1 0
-249 8 0
-256 250 255 0
-250 14 0
-250 19 0
-255 251 254 0
-251 24 0
-251 29 0
-254 252 253 0
-252 34 0
-252 39 0
-253 44 0
-253 49 0
-534 276 533 0
-276 275 0
-276 47 0
-275 274 0
-275 49 0
-274 27 0
-274 37 0
-533 279 532 0
-279 278 0
-279 37 0
-278 277 0
-278 39 0
-277 17 0
-277 27 0
-532 282 531 0
-282 281 0
-282 27 0
-281 280 0
-281 29 0
-280 5 0
-280 17 0
-531 294 530 0
-294 293 0
-294 17 0
-293 292 0
-293 19 0
-292 291 0
-292 5 0
-291 283 290 0
-283 1 0
-283 5 0
-290 284 289 0
-284 14 0
-284 17 0
-289 285 288 0
-285 24 0
-285 27 0
-288 286 287 0
-286 34 0
-286 37 0
-287 44 0
-287 47 0
-530 319 529 0
-319 318 0
-319 5 0
-318 317 0
-318 8 0
-317 305 316 0
-305 1 0
-305 304 0
-304 303 0
-304 5 0
-303 295 302 0
-295 1 0
-295 5 0
-302 296 301 0
-296 14 0
-296 17 0
-301 297 300 0
-297 24 0
-297 27 0
-300 298 299 0
-298 34 0
-298 37 0
-299 44 0
-299 47 0
-316 307 315 0
-307 14 0
-307 306 0
-306 5 0
-306 17 0
-315 309 314 0
-309 24 0
-309 308 0
-308 17 0
-308 27 0
-314 311 313 0
-311 34 0
-311 310 0
-310 27 0
-310 37 0
-313 44 0
-313 312 0
-312 37 0
-312 47 0
-529 345 528 0
-345 1 0
-345 344 0
-344 343 0
-344 5 0
-343 342 0
-343 8 0
-342 330 341 0
-330 1 0
-330 329 0
-329 328 0
-329 5 0
-328 320 327 0
-320 1 0
-320 5 0
-327 321 326 0
-321 14 0
-321 17 0
-326 322 325 0
-322 24 0
-322 27 0
-325 323 324 0
-323 34 0
-323 37 0
-324 44 0
-324 47 0
-341 332 340 0
-332 14 0
-332 331 0
-331 5 0
-331 17 0
-340 334 339 0
-334 24 0
-334 333 0
-333 17 0
-333 27 0
-339 336 338 0
-336 34 0
-336 335 0
-335 27 0
-335 37 0
-338 44 0
-338 337 0
-337 37 0
-337 47 0
-528 384 527 0
-384 14 0
-384 383 0
-383 357 382 0
-357 356 0
-357 17 0
-356 355 0
-356 19 0
-355 354 0
-355 5 0
-354 346 353 0
-346 1 0
-346 5 0
-353 347 352 0
-347 14 0
-347 17 0
-352 348 351 0
-348 24 0
-348 27 0
-351 349 350 0
-349 34 0
-349 37 0
-350 44 0
-350 47 0
-382 381 0
-382 5 0
-381 380 0
-381 8 0
-380 368 379 0
-368 1 0
-368 367 0
-367 366 0
-367 5 0
-366 358 365 0
-358 1 0
-358 5 0
-365 359 364 0
-359 14 0
-359 17 0
-364 360 363 0
-360 24 0
-360 27 0
-363 361 362 0
-361 34 0
-361 37 0
-362 44 0
-362 47 0
-379 370 378 0
-370 14 0
-370 369 0
-369 5 0
-369 17 0
-378 372 377 0
-372 24 0
-372 371 0
-371 17 0
-371 27 0
-377 374 376 0
-374 34 0
-374 373 0
-373 27 0
-373 37 0
-376 44 0
-376 375 0
-375 37 0
-375 47 0
-527 427 526 0
-427 24 0
-427 426 0
-426 387 425 0
-387 386 0
-387 27 0
-386 385 0
-386 29 0
-385 5 0
-385 17 0
-425 399 424 0
-399 398 0
-399 17 0
-398 397 0
-398 19 0
-397 396 0
-397 5 0
-396 388 395 0
-388 1 0
-388 5 0
-395 389 394 0
-389 14 0
-389 17 0
-394 390 393 0
-390 24 0
-390 27 0
-393 391 392 0
-391 34 0
-391 37 0
-392 44 0
-392 47 0
-424 423 0
-424 5 0
-423 422 0
-423 8 0
-422 410 421 0
-410 1 0
-410 409 0
-409 408 0
-409 5 0
-408 400 407 0
-400 1 0
-400 5 0
-407 401 406 0
-401 14 0
-401 17 0
-406 402 405 0
-402 24 0
-402 27 0
-405 403 404 0
-403 34 0
-403 37 0
-404 44 0
-404 47 0
-421 412 420 0
-412 14 0
-412 411 0
-411 5 0
-411 17 0
-420 414 419 0
-414 24 0
-414 413 0
-413 17 0
-413 27 0
-419 416 418 0
-416 34 0
-416 415 0
-415 27 0
-415 37 0
-418 44 0
-418 417 0
-417 37 0
-417 47 0
-526 474 525 0
-474 34 0
-474 473 0
-473 430 472 0
-430 429 0
-430 37 0
-429 428 0
-429 39 0
-428 17 0
-428 27 0
-472 433 471 0
-433 432 0
-433 27 0
-432 431 0
-432 29 0
-431 5 0
-431 17 0
-471 445 470 0
-445 444 0
-445 17 0
-444 443 0
-444 19 0
-443 442 0
-443 5 0
-442 434 441 0
-434 1 0
-434 5 0
-441 435 440 0
-435 14 0
-435 17 0
-440 436 439 0
-436 24 0
-436 27 0
-439 437 438 0
-437 34 0
-437 37 0
-438 44 0
-438 47 0
-470 469 0
-470 5 0
-469 468 0
-469 8 0
-468 456 467 0
-456 1 0
-456 455 0
-455 454 0
-455 5 0
-454 446 453 0
-446 1 0
-446 5 0
-453 447 452 0
-447 14 0
-447 17 0
-452 448 451 0
-448 24 0
-448 27 0
-451 449 450 0
-449 34 0
-449 37 0
-450 44 0
-450 47 0
-467 458 466 0
-458 14 0
-458 457 0
-457 5 0
-457 17 0
-466 460 465 0
-460 24 0
-460 459 0
-459 17 0
-459 27 0
-465 462 464 0
-462 34 0
-462 461 0
-461 27 0
-461 37 0
-464 44 0
-464 463 0
-463 37 0
-463 47 0
-525 44 0
-525 524 0
-524 477 523 0
-477 476 0
-477 47 0
-476 475 0
-476 49 0
-475 27 0
-475 37 0
-523 480 522 0
-480 479 0
-480 37 0
-479 478 0
-479 39 0
-478 17 0
-478 27 0
-522 483 521 0
-483 482 0
-483 27 0
-482 481 0
-482 29 0
-481 5 0
-481 17 0
-521 495 520 0
-495 494 0
-495 17 0
-494 493 0
-494 19 0
-493 492 0
-493 5 0
-492 484 491 0
-484 1 0
-484 5 0
-491 485 490 0
-485 14 0
-485 17 0
-490 486 489 0
-486 24 0
-486 27 0
-489 487 488 0
-487 34 0
-487 37 0
-488 44 0
-488 47 0
-520 519 0
-520 5 0
-519 518 0
-519 8 0
-518 506 517 0
-506 1 0
-506 505 0
-505 504 0
-505 5 0
-504 496 503 0
-496 1 0
-496 5 0
-503 497 502 0
-497 14 0
-497 17 0
-502 498 501 0
-498 24 0
-498 27 0
-501 499 500 0
-499 34 0
-499 37 0
-500 44 0
-500 47 0
-517 508 516 0
-508 14 0
-508 507 0
-507 5 0
-507 17 0
-516 510 515 0
-510 24 0
-510 509 0
-509 17 0
-509 27 0
-515 512 514 0
-512 34 0
-512 511 0
-511 27 0
-511 37 0
-514 44 0
-514 513 0
-513 37 0
-513 47 0
