lib/ltl-model-counter/result/numofmodels-k5.sat
(((((l4)->(((p04)=(p05))&(((p14)=(p15))&((p24)=(p25)))))&(((l3)->(((p03)=(p05))&(((p13)=(p15))&((p23)=(p25)))))&(((l2)->(((p02)=(p05))&(((p12)=(p15))&((p22)=(p25)))))&(((l1)->(((p01)=(p05))&(((p11)=(p15))&((p21)=(p25)))))&((l0)->(((p00)=(p05))&(((p10)=(p15))&((p20)=(p25)))))))))&((l4)|((l3)|((l2)|((l1)|(l0))))))&((((l3)|((l2)|((l1)|(l0))))->(!l4))&((((l2)|((l1)|(l0)))->(!l3))&((((l1)|(l0))->(!l2))&((l0)->(!l1))))))&(((((!p21)|(!p00))&(((!p22)|(!p01))&(((!p23)|(!p02))&(((!p24)|(!p03))&(((((l4)&(!p24))|(((l3)&(!p23))|(((l2)&(!p22))|(((l1)&(!p21))|((l0)&(!p20))))))|(!p04))&(((l4)&((((l4)&(!p24))|(((l3)&(!p23))|(((l2)&(!p22))|(((l1)&(!p21))|((l0)&(!p20))))))|(!p04)))|(((l3)&(((!p24)|(!p03))&((((l4)&(!p24))|(((l3)&(!p23))|(((l2)&(!p22))|(((l1)&(!p21))|((l0)&(!p20))))))|(!p04))))|(((l2)&(((!p23)|(!p02))&(((!p24)|(!p03))&((((l4)&(!p24))|(((l3)&(!p23))|(((l2)&(!p22))|(((l1)&(!p21))|((l0)&(!p20))))))|(!p04)))))|(((l1)&(((!p22)|(!p01))&(((!p23)|(!p02))&(((!p24)|(!p03))&((((l4)&(!p24))|(((l3)&(!p23))|(((l2)&(!p22))|(((l1)&(!p21))|((l0)&(!p20))))))|(!p04))))))|((l0)&(((!p21)|(!p00))&(((!p22)|(!p01))&(((!p23)|(!p02))&(((!p24)|(!p03))&((((l4)&(!p24))|(((l3)&(!p23))|(((l2)&(!p22))|(((l1)&(!p21))|((l0)&(!p20))))))|(!p04))))))))))))))))&(((p21)|(!p10))&(((p22)|(!p11))&(((p23)|(!p12))&(((p24)|(!p13))&(((((l4)&(p24))|(((l3)&(p23))|(((l2)&(p22))|(((l1)&(p21))|((l0)&(p20))))))|(!p14))&(((l4)&((((l4)&(p24))|(((l3)&(p23))|(((l2)&(p22))|(((l1)&(p21))|((l0)&(p20))))))|(!p14)))|(((l3)&(((p24)|(!p13))&((((l4)&(p24))|(((l3)&(p23))|(((l2)&(p22))|(((l1)&(p21))|((l0)&(p20))))))|(!p14))))|(((l2)&(((p23)|(!p12))&(((p24)|(!p13))&((((l4)&(p24))|(((l3)&(p23))|(((l2)&(p22))|(((l1)&(p21))|((l0)&(p20))))))|(!p14)))))|(((l1)&(((p22)|(!p11))&(((p23)|(!p12))&(((p24)|(!p13))&((((l4)&(p24))|(((l3)&(p23))|(((l2)&(p22))|(((l1)&(p21))|((l0)&(p20))))))|(!p14))))))|((l0)&(((p21)|(!p10))&(((p22)|(!p11))&(((p23)|(!p12))&(((p24)|(!p13))&((((l4)&(p24))|(((l3)&(p23))|(((l2)&(p22))|(((l1)&(p21))|((l0)&(p20))))))|(!p14)))))))))))))))))|(((((p12)&(p11))&(p20))&(p10))|(((((p13)&(p12))&(p21))&(p11))|(((((p14)&(p13))&(p22))&(p12))|(((((((l4)&(p14))|(((l3)&(p13))|(((l2)&(p12))|(((l1)&(p11))|((l0)&(p10))))))&(p14))&(p23))&(p13))|((((((l4)&((((l4)&(p14))|(((l3)&(p13))|(((l2)&(p12))|(((l1)&(p11))|((l0)&(p10))))))&(p14)))|(((l3)&((p14)&(p13)))|(((l2)&((p13)&(p12)))|(((l1)&((p12)&(p11)))|((l0)&((p11)&(p10)))))))&(p24))&(p14))|(((l4)&(((((l4)&((((l4)&(p14))|(((l3)&(p13))|(((l2)&(p12))|(((l1)&(p11))|((l0)&(p10))))))&(p14)))|(((l3)&((p14)&(p13)))|(((l2)&((p13)&(p12)))|(((l1)&((p12)&(p11)))|((l0)&((p11)&(p10)))))))&(p24))&(p14)))|(((l3)&(((((((l4)&(p14))|(((l3)&(p13))|(((l2)&(p12))|(((l1)&(p11))|((l0)&(p10))))))&(p14))&(p23))&(p13))|(((((l4)&((((l4)&(p14))|(((l3)&(p13))|(((l2)&(p12))|(((l1)&(p11))|((l0)&(p10))))))&(p14)))|(((l3)&((p14)&(p13)))|(((l2)&((p13)&(p12)))|(((l1)&((p12)&(p11)))|((l0)&((p11)&(p10)))))))&(p24))&(p14))))|(((l2)&(((((p14)&(p13))&(p22))&(p12))|(((((((l4)&(p14))|(((l3)&(p13))|(((l2)&(p12))|(((l1)&(p11))|((l0)&(p10))))))&(p14))&(p23))&(p13))|(((((l4)&((((l4)&(p14))|(((l3)&(p13))|(((l2)&(p12))|(((l1)&(p11))|((l0)&(p10))))))&(p14)))|(((l3)&((p14)&(p13)))|(((l2)&((p13)&(p12)))|(((l1)&((p12)&(p11)))|((l0)&((p11)&(p10)))))))&(p24))&(p14)))))|(((l1)&(((((p13)&(p12))&(p21))&(p11))|(((((p14)&(p13))&(p22))&(p12))|(((((((l4)&(p14))|(((l3)&(p13))|(((l2)&(p12))|(((l1)&(p11))|((l0)&(p10))))))&(p14))&(p23))&(p13))|(((((l4)&((((l4)&(p14))|(((l3)&(p13))|(((l2)&(p12))|(((l1)&(p11))|((l0)&(p10))))))&(p14)))|(((l3)&((p14)&(p13)))|(((l2)&((p13)&(p12)))|(((l1)&((p12)&(p11)))|((l0)&((p11)&(p10)))))))&(p24))&(p14))))))|((l0)&(((((p12)&(p11))&(p20))&(p10))|(((((p13)&(p12))&(p21))&(p11))|(((((p14)&(p13))&(p22))&(p12))|(((((((l4)&(p14))|(((l3)&(p13))|(((l2)&(p12))|(((l1)&(p11))|((l0)&(p10))))))&(p14))&(p23))&(p13))|(((((l4)&((((l4)&(p14))|(((l3)&(p13))|(((l2)&(p12))|(((l1)&(p11))|((l0)&(p10))))))&(p14)))|(((l3)&((p14)&(p13)))|(((l2)&((p13)&(p12)))|(((l1)&((p12)&(p11)))|((l0)&((p11)&(p10)))))))&(p24))&(p14)))))))))))))))))